25 500
  0     35.0     35.0       0.0     1000.0      0.0       0.0       0.0  
  1     41.0     49.0      190.0     974.0     10.0      10.0      10.0  
  2     35.0     17.0      18.0      792.0     10.0      13.0       7.0  
  3     55.0     45.0      289.0     822.0     10.0      17.0      13.0  
  4     55.0     20.0      679.0     800.0     10.0      36.0      19.0  
  5     15.0     30.0      20.0      906.0     10.0      16.0      26.0  
  6     25.0     30.0      355.0     574.0     10.0       5.0       3.0  
  7     20.0     50.0      72.0      669.0     10.0       8.0       5.0  
  8     10.0     43.0      393.0     492.0     10.0      15.0       9.0  
  9     55.0     60.0      394.0     503.0     10.0      15.0      16.0  
 10     30.0     60.0      517.0     692.0     10.0      10.0      16.0  
 11     20.0     65.0      206.0     325.0     10.0       3.0      12.0  
 12     50.0     35.0      15.0      725.0     10.0      29.0      19.0  
 13     30.0     25.0      694.0     823.0     10.0      31.0      23.0  
 14     15.0     10.0      32.0      694.0     10.0      17.0      20.0  
 15     30.0      5.0      176.0     299.0     10.0       2.0       8.0  
 16     10.0     20.0      102.0     543.0     10.0      34.0      19.0  
 17      5.0     30.0      673.0     930.0     10.0       1.0       2.0  
 18     20.0     40.0      229.0     582.0     10.0       1.0      12.0  
 19     15.0     60.0      95.0      552.0     10.0      23.0      17.0  
 20     45.0     65.0      418.0     829.0     10.0      15.0       9.0  
 21     45.0     20.0      18.0      727.0     10.0      12.0      11.0  
 22     45.0     10.0      349.0     554.0     10.0      14.0      18.0  
 23     55.0      5.0      206.0     325.0     10.0      55.0      29.0  
 24     65.0     35.0      435.0     960.0     10.0       3.0       3.0  
 25     65.0     20.0      826.0     956.0     10.0       1.0       6.0  
